NAME: tsp50_1
COMMENT: 50-tsp problem (Padberg/Rinaldi)
TYPE: TSP
DIMENSION: 50
EDGE_WEIGHT_TYPE : EUC_2D
NODE_COORD_SECTION
1 22 3
2 36 7
3 9 37
4 7 31
5 38 5
6 24 14
7 20 27
8 1 7
9 24 5
10 3 23
11 1 39
12 7 37
13 37 28
14 34 3
15 32 35
16 20 25
17 18 33
18 15 27
19 25 8
20 9 21
21 10 4
22 13 20
23 22 21
24 19 10
25 9 21
26 1 5
27 25 12
28 16 10
29 30 32
30 14 39
31 38 11
32 14 17
33 24 29
34 27 31
35 33 24
36 13 3
37 10 39
38 1 18
39 15 34
40 12 28
41 24 11
42 39 30
43 25 21
44 1 28
45 9 9
46 28 18
47 18 9
48 6 0
49 24 14
50 10 14
